p cnf 23 48
34 0
-15 10 7 5 0
-15 10 7 1 0
-15 10 2 5 0
-15 10 2 1 0
-15 3 7 5 0
-15 3 7 1 0
-15 3 2 5 0
-15 3 2 1 0
-19 -7 -2 0
-19 -5 -1 0
-19 -10 -3 0
-19 15 0
-20 10 0
-20 3 0
-21 5 0
-21 1 0
-22 7 0
-22 2 0
-23 22 21 20 0
-24 -3 0
-24 -2 0
-24 -1 0
-25 -3 0
-25 -2 0
-25 -5 0
-26 -3 0
-26 -7 0
-26 -1 0
-27 -3 0
-27 -7 0
-27 -5 0
-28 -10 0
-28 -2 0
-28 -1 0
-29 -10 0
-29 -2 0
-29 -5 0
-30 -10 0
-30 -7 0
-30 -1 0
-31 -10 0
-31 -7 0
-31 -5 0
-32 31 30 29 28 27 26 25 24 0
-33 32 0
-33 23 0
-34 33 19 0
